\LP file generated from the problem `Slots selection' by the
\Xpress Builder Component Library Xpress BCL

Minimize
obj: 1e+006 WR_(0) + 1e+006 WR_(1) + 1e+006 WR_(2) + 1e+006 WR_(3) + 1e+006 WR_(4) + 
1e+006 WR_(5) + 1e+006 WR_(6) + 1e+006 WR_(7) + 1e+006 WR_(8) + 1e+006 WR_(9) + 
1e+006 WR_(10) + 1e+006 WR_(11) + 1e+006 WR_(12) + 1e+006 WR_(13) + 1e+006 WR_(14) + 
1e+006 WR_(15) + 1e+006 WR_(16) + 1e+006 WR_(17) + 1e+006 WR_(18) + 1e+006 WR_(19) + 
1e+006 WR_(20) + 1e+006 WR_(21) + 1e+006 WR_(22) + 1e+006 WR_(23)

Subject To
slot_14: = 0
slot_13: = 0
slot_12: = 0
slot_11: = 0
slot_10: = 0
slot_9: = 0
slot_8: = 0
slot_7: = 0
slot_6: WR_(5) + WR_(11) + WR_(17) + WR_(23) = 1
slot_5: WR_(4) + WR_(10) + WR_(16) + WR_(22) = 1
slot_4: WR_(3) + WR_(9) + WR_(15) + WR_(21) = 1
slot_3: WR_(2) + WR_(8) + WR_(14) + WR_(20) = 1
slot_2: WR_(1) + WR_(7) + WR_(13) + WR_(19) = 1
slot_1: WR_(0) + WR_(6) + WR_(12) + WR_(18) = 1
slot: = 0

Bounds

Binaries
WR_(0) WR_(1) WR_(2) WR_(3) WR_(4) WR_(5) WR_(6) WR_(7) WR_(8) WR_(9) WR_(10) 
WR_(11) WR_(12) WR_(13) WR_(14) WR_(15) WR_(16) WR_(17) WR_(18) WR_(19) WR_(20) 
WR_(21) WR_(22) WR_(23) 

End
